1	1	1	1	4	1	1	1	1	4	1	1	4	1	1	1	4	1	1	1	1
1	4	1	4	1	1	4	1	4	2	2	4	2	4	2	2	2	4	1	4	1
1	1	4	2	4	1	4	4	2	4	2	4	2	2	4	2	2	2	4	1	1
1	4	2	2	2	4	2	2	2	2	2	2	2	2	2	2	2	2	2	4	1
1	1	4	2	2	2	2	2	2	2	4	2	2	2	2	2	2	2	4	1	1
1	4	2	2	2	2	4	2	2	2	2	4	2	2	2	4	2	2	2	4	1
4	2	2	2	2	2	2	2	2	2	2	4	2	2	4	2	2	2	2	2	4
4	2	2	4	2	2	2	2	4	2	2	2	2	2	2	2	2	2	2	2	4
4	2	2	2	4	2	2	2	2	4	2	2	2	4	2	2	2	4	2	2	4
4	2	2	2	2	2	2	2	2	2	2	2	4	2	2	2	4	2	2	2	4
4	2	2	2	2	2	2	4	2	2	2	2	4	2	2	2	2	2	2	2	4
1	4	2	2	2	2	2	2	4	2	2	4	2	2	2	2	2	2	2	4	1
1	1	4	2	2	4	2	2	2	4	2	2	2	2	2	4	2	2	4	1	1
1	1	4	2	2	2	4	2	2	2	4	2	2	2	4	2	2	2	4	1	1
1	1	4	2	2	2	2	4	2	2	2	2	2	4	2	2	2	2	4	1	1
1	1	1	4	2	2	2	4	2	2	2	2	2	4	2	2	2	4	1	1	1
1	1	1	1	4	2	2	2	2	2	2	2	2	2	2	2	4	1	1	1	1
1	1	1	1	4	2	2	4	2	2	4	2	2	4	2	2	4	1	1	1	1
1	1	1	1	1	4	2	4	2	4	2	4	2	4	1	4	1	1	1	1	1
1	1	1	1	1	1	1	4	2	2	4	2	2	4	1	1	1	1	1	1	1
1	1	1	1	1	1	1	4	2	2	2	2	2	4	1	1	1	1	1	1	1
1	1	1	1	1	1	1	4	2	2	2	2	2	4	1	1	1	1	1	1	1
1	1	1	1	1	1	1	4	2	2	2	2	2	4	1	1	1	1	1	1	1
1	1	1	1	1	1	1	4	2	2	2	2	2	4	1	1	1	1	1	1	1
1	1	1	1	1	1	1	4	2	2	2	2	2	4	1	1	1	1	1	1	1
1	1	1	1	1	1	1	4	2	2	2	2	2	4	1	1	1	1	1	1	1
1	1	1	1	1	1	1	3	5	5	5	5	5	3	1	1	1	1	1	1	1
1	1	1	1	1	1	1	3	5	5	5	5	5	3	1	1	1	1	1	1	1
1	1	1	1	1	1	3	5	5	5	3	5	5	5	3	1	1	1	1	1	1
1	1	1	1	1	3	5	5	5	5	5	3	5	5	5	3	1	1	1	1	1
